[runlim] version:		2.0.0rc12
[runlim] host:			ap-Precision-7550
[runlim] time limit:		311040000 seconds
[runlim] real time limit:	600 seconds
[runlim] space limit:		14000 MB
[runlim] argv[0]:		python3
[runlim] argv[1]:		-u
[runlim] argv[2]:		mip_no.py
[runlim] argv[3]:		scen06
[runlim] start:			Wed Mar 25 02:53:35 2026
[runlim] child:			68133
--- Building MIP model for 200 variables ---
--- Solving with CPLEX MIP ---
Version identifier: 22.1.1.0 | 2022-11-28 | 9160aff4d
CPXPARAM_Read_DataCheck                          1
CPXPARAM_MIP_Tolerances_MIPGap                   0
Legacy callback                                  i
Tried aggregator 1 time.
Presolve has eliminated 763119 rows and 1566 columns...
MIP Presolve eliminated 763119 rows and 1566 columns.
MIP Presolve modified 118518 coefficients.
Reduced MIP has 21822 rows, 6498 columns, and 419633 nonzeros.
Reduced MIP has 6498 binaries, 0 generals, 0 SOSs, and 0 indicators.
Presolve time = 6.95 sec. (11431.09 ticks)
[runlim] sample:		16.60 time, 10.01 real, 263 MB, 2.22 load
Probing fixed 2710 vars, tightened 0 bounds.
Probing changed sense of 2588 constraints.
Probing time = 0.04 sec. (18.33 ticks)
Cover probing fixed 13 vars, tightened 55 bounds.
Presolve time = 0.21 sec. (317.19 ticks)

Root node processing (before b&c):
  Real time             =    8.17 sec. (13377.03 ticks)
Parallel b&c, 12 threads:
  Real time             =    0.00 sec. (0.00 ticks)
  Sync time (average)   =    0.00 sec.
  Wait time (average)   =    0.00 sec.
                          ------------
Total (root+branch&cut) =    8.17 sec. (13377.03 ticks)
CPLEX Error  1217: No solution exists.
No solution found or the problem is infeasible.
Total time: 10.84s
Memory used: 210.27 MB
==============================
[runlim] end:			Wed Mar 25 02:53:46 2026
[runlim] status:		ok
[runlim] result:		0
[runlim] children:		1
[runlim] processes:		2
[runlim] real:			10.90 seconds
[runlim] time:			17.74 seconds
[runlim] space:			328 MB
[runlim] load:			2.33 maximum
[runlim] samples:		109
